Minimize
  - 16 y_0 - 42 y_1 - 23 y_2 - 20 y_3 - 33 y_4 - 52 y_5 - 43 y_6 - 8 y_7
   - 19 y_8 - 15 y_9 - 43 y_11 - 39 y_12 - 43 y_13 - 23 y_14 - 30 y_15
   - 46 y_16 - 3 y_17 - 26 y_18 - 59 y_19 + 20 x_0_2 + 21 x_0_3 + 48 x_0_12
   + 30 x_0_15 + 28 x_0_17 + 24 x_0_18 + 79 x_1_3 + 81 x_1_5 + 46 x_1_8
   + 54 x_1_9 + 83 x_1_10 + 24 x_1_12 + 79 x_1_13 + 37 x_1_14 + 61 x_1_16
   + 16 x_2_15 + 55 x_2_16 + 37 x_2_18 + 50 x_3_14 + 60 x_3_16 + 39 x_3_17
   + 14 x_3_18 + 40 x_4_9 + 63 x_4_13 + 22 x_4_14 + 15 x_4_15 + 83 x_5_8
   + 57 x_5_11 + 55 x_5_18 + 37 x_5_19 + 56 x_6_8 + 20 x_6_12 + 18 x_6_16
   + 82 x_6_17 + 25 x_7_8 + 71 x_7_11 + 72 x_7_13 + 103 x_7_19 + 12 x_8_9
   + 70 x_8_13 + 28 x_8_15 + 44 x_8_18 + 80 x_9_13 + 78 x_10_12
   + 47 x_10_14 + 119 x_10_19 + 9 x_11_12 + 27 x_11_15 + 38 x_11_16
   + 43 x_11_19 + 36 x_12_14 + 72 x_12_17 + 53 x_12_18 + 49 x_12_19
   + 24 x_13_16 + 61 x_15_19 + 87 x_16_17 + 583 Constant
Subject To
 c_0: y_4 = 1
 c_1_0: y_0 >= 1
 c_1_1: y_1 >= 1
 c_1_2: y_2 >= 1
 c_1_3: y_3 >= 1
 c_1_4: y_4 >= 1
 c_1_5: y_5 >= 1
 c_1_6: y_6 >= 1
 c_1_7: y_7 >= 1
 c_1_8: y_8 + y_14 >= 1
 c_1_9: y_9 >= 1
 c_1_10: y_10 + y_17 >= 1
 c_1_11: y_11 + y_12 >= 1
 c_1_12: y_11 + y_12 >= 1
 c_1_13: y_13 >= 1
 c_1_14: y_8 + y_14 >= 1
 c_1_15: y_15 >= 1
 c_1_16: y_16 >= 1
 c_1_17: y_10 + y_17 >= 1
 c_1_18: y_18 >= 1
 c_1_19: y_19 >= 1
 c_2_0: - 2 y_0 + x_0_2 + x_0_3 + x_0_12 + x_0_15 + x_0_17 + x_0_18 = 0
 c_2_1: - 2 y_1 + x_1_3 + x_1_5 + x_1_8 + x_1_9 + x_1_10 + x_1_12 + x_1_13
   + x_1_14 + x_1_16 = 0
 c_2_2: - 2 y_2 + x_0_2 + x_2_15 + x_2_16 + x_2_18 = 0
 c_2_3: - 2 y_3 + x_0_3 + x_1_3 + x_3_14 + x_3_16 + x_3_17 + x_3_18 = 0
 c_2_4: - 2 y_4 + x_4_9 + x_4_13 + x_4_14 + x_4_15 = 0
 c_2_5: - 2 y_5 + x_1_5 + x_5_8 + x_5_11 + x_5_18 + x_5_19 = 0
 c_2_6: - 2 y_6 + x_6_8 + x_6_12 + x_6_16 + x_6_17 = 0
 c_2_7: - 2 y_7 + x_7_8 + x_7_11 + x_7_13 + x_7_19 = 0
 c_2_8: - 2 y_8 + x_1_8 + x_5_8 + x_6_8 + x_7_8 + x_8_9 + x_8_13 + x_8_15
   + x_8_18 = 0
 c_2_9: - 2 y_9 + x_1_9 + x_4_9 + x_8_9 + x_9_13 = 0
 c_2_10: - 2 y_10 + x_1_10 + x_10_12 + x_10_14 + x_10_19 = 0
 c_2_11: - 2 y_11 + x_5_11 + x_7_11 + x_11_12 + x_11_15 + x_11_16 + x_11_19
   = 0
 c_2_12: - 2 y_12 + x_0_12 + x_1_12 + x_6_12 + x_10_12 + x_11_12 + x_12_14
   + x_12_17 + x_12_18 + x_12_19 = 0
 c_2_13: - 2 y_13 + x_1_13 + x_4_13 + x_7_13 + x_8_13 + x_9_13 + x_13_16
   = 0
 c_2_14: - 2 y_14 + x_1_14 + x_3_14 + x_4_14 + x_10_14 + x_12_14 = 0
 c_2_15: - 2 y_15 + x_0_15 + x_2_15 + x_4_15 + x_8_15 + x_11_15 + x_15_19
   = 0
 c_2_16: - 2 y_16 + x_1_16 + x_2_16 + x_3_16 + x_6_16 + x_11_16 + x_13_16
   + x_16_17 = 0
 c_2_17: - 2 y_17 + x_0_17 + x_3_17 + x_6_17 + x_12_17 + x_16_17 = 0
 c_2_18: - 2 y_18 + x_0_18 + x_2_18 + x_3_18 + x_5_18 + x_8_18 + x_12_18
   = 0
 c_2_19: - 2 y_19 + x_5_19 + x_7_19 + x_10_19 + x_11_19 + x_12_19 + x_15_19
   = 0
Bounds
 Constant = 1
Binaries
 y_0 y_1 y_2 y_3 y_4 y_5 y_6 y_7 y_8 y_9 y_10 y_11 y_12 y_13 y_14 y_15 y_16
 y_17 y_18 y_19 x_0_2 x_0_3 x_0_12 x_0_15 x_0_17 x_0_18 x_1_3 x_1_5 x_1_8
 x_1_9 x_1_10 x_1_12 x_1_13 x_1_14 x_1_16 x_2_15 x_2_16 x_2_18 x_3_14
 x_3_16 x_3_17 x_3_18 x_4_9 x_4_13 x_4_14 x_4_15 x_5_8 x_5_11 x_5_18 x_5_19
 x_6_8 x_6_12 x_6_16 x_6_17 x_7_8 x_7_11 x_7_13 x_7_19 x_8_9 x_8_13 x_8_15
 x_8_18 x_9_13 x_10_12 x_10_14 x_10_19 x_11_12 x_11_15 x_11_16 x_11_19
 x_12_14 x_12_17 x_12_18 x_12_19 x_13_16 x_15_19 x_16_17
End
